Ag Rh 
 1.0000000000000000
     9.6307439099999996    0.0000000000000000    0.0000000000000000
    -5.3446009145127436    8.6243214861322155    0.0000000000000000
     0.0000000000000000    0.0000000000000000   24.2020000000000017
 Ag  Rh 
  36  24
Direct
  0.1666700000000000  0.8993400000000000  0.5950500000000000
  0.8333300000000001  0.8773399999999999  0.5000000000000000
  0.5000000000000000  0.7106700000000000  0.5000000000000000
  0.1666700000000000  0.5440000000000000  0.5000000000000000
  0.8333300000000001  0.3773400000000000  0.5000000000000000
  0.5000000000000000  0.0660000000000000  0.5950500000000000
  0.5000000000000000  0.5659999999999999  0.5950500000000000
  0.8333300000000001  0.7326700000000000  0.5950500000000000
  0.8333300000000001  0.2326700000000000  0.5950500000000000
  0.1666700000000000  0.3993399999999999  0.5950500000000000
  0.8333300000000001  0.5880099999999999  0.6900999999999999
  0.1666700000000000  0.7546700000000000  0.6900999999999999
  0.1666700000000000  0.2546700000000000  0.6900999999999999
  0.5000000000000000  0.4213399999999999  0.6900999999999999
  0.5000000000000000  0.9213400000000000  0.6900999999999999
  0.8333300000000001  0.0880100000000000  0.6900999999999999
  0.3333300000000000  0.0880100000000000  0.6900999999999999
  0.0000000000000000  0.9213400000000000  0.6900999999999999
  0.6666700000000000  0.7546700000000000  0.6900999999999999
  0.3333300000000000  0.5880099999999999  0.6900999999999999
  0.1666700000000000  0.0440000000000000  0.5000000000000000
  0.0000000000000000  0.4213399999999999  0.6900999999999999
  0.5000000000000000  0.2106700000000000  0.5000000000000000
  0.5000000000000000  0.8553300000000000  0.4049500000000000
  0.8333300000000001  0.0220000000000000  0.4049500000000000
  0.8333300000000001  0.6666700000000000  0.3099000000000000
  0.5000000000000000  0.5000000000000000  0.3099000000000000
  0.1666700000000000  0.3333300000000000  0.3099000000000000
  0.8333300000000001  0.1666700000000000  0.3099000000000000
  0.1666700000000000  0.8333300000000000  0.3099000000000000
  0.5000000000000000  0.0000000000000000  0.3099000000000000
  0.5000000000000000  0.3553299999999999  0.4049500000000000
  0.1666700000000000  0.1886700000000000  0.4049500000000000
  0.6666700000000000  0.2546700000000000  0.6900999999999999
  0.8333300000000001  0.5219999999999999  0.4049500000000000
  0.1666700000000000  0.6886700000000000  0.4049500000000000
  0.3333300000000000  0.1666700000000000  0.3099000000000000
  0.3333300000000000  0.6666700000000000  0.3099000000000000
  0.6666700000000000  0.8333300000000000  0.3099000000000000
  0.0000000000000000  0.0000000000000000  0.3099000000000000
  0.6666700000000000  0.0440000000000000  0.5000000000000000
  0.0000000000000000  0.2106700000000000  0.5000000000000000
  0.3333300000000000  0.7326700000000000  0.5950500000000000
  0.0000000000000000  0.5659999999999999  0.5950500000000000
  0.6666699999999999  0.3993399999999999  0.5950500000000000
  0.3333300000000000  0.2326700000000000  0.5950500000000000
  0.6666700000000000  0.5440000000000000  0.5000000000000000
  0.6666700000000000  0.3333300000000000  0.3099000000000000
  0.3333300000000000  0.3773400000000000  0.5000000000000000
  0.3333299999999999  0.8773399999999999  0.5000000000000000
  0.0000000000000000  0.7106700000000000  0.5000000000000000
  0.6666700000000000  0.1886700000000000  0.4049500000000000
  0.0000000000000000  0.3553299999999999  0.4049500000000000
  0.3333300000000000  0.5219999999999999  0.4049500000000000
  0.6666700000000000  0.6886700000000000  0.4049500000000000
  0.0000000000000000  0.8553300000000000  0.4049500000000000
  0.3333300000000000  0.0220000000000000  0.4049500000000000
  0.0000000000000000  0.5000000000000000  0.3099000000000000
  0.0000000000000000  0.0660000000000000  0.5950500000000000
  0.6666700000000000  0.8993400000000000  0.5950500000000000
